25
    1    16    16
    2    10    10
    3     4     4
    4     7     7
    5     6     6
    6     8     8
    7    11    11
    8    12    12
    9     8     8
   10    18    18
   11    10    10
   12     1     1
   13     5     5
   14    14    14
   15    20    20
   16    12    12
   17     1     1
   18     3     3
   19    10    10
   20     7     7
   21    20    20
   22     3     3
   23    11    11
   24    11    11
   25    12    12
47
